letting n =  10
letting blocks =  [[1, 2], [1, 3], [1, 5], [1, 6], [1, 9], [2, 4], [2, 9], [3, 1], [3, 3], [3, 9], [4, 1], [4, 2], [4, 7], [4, 8], [4, 9], [4, 10], [5, 4], [5, 5], [5, 6], [5, 9], [5, 10], [6, 3], [6, 5], [6, 6], [6, 7], [6, 8], [6, 9], [7, 1], [7, 7], [7, 8], [7, 10], [8, 1], [8, 2], [8, 6], [8, 7], [8, 8], [8, 10], [9, 1], [9, 2], [9, 4], [9, 5], [9, 6], [9, 8], [10, 1], [10, 4], [10, 5], [10, 6], [10, 8]]
